datasets/2-dimensional/CL_04_25_04.vbp
2
1000 1000 
25
178 58 30
160 69 72
94 72 4
112 151 88
98 139 54
134 70 64
55 176 90
194 143 26
183 151 94
157 136 28
149 80 72
91 167 49
118 180 54
112 102 19
158 116 28
87 157 61
85 57 84
83 149 23
66 68 67
66 95 53
167 116 54
53 62 16
56 68 9
110 166 54
198 141 77
