2-dimensional/CL_04_25_04.txt
1000 1000 
0 30 178 58 
1 72 160 69 
2 4 94 72 
3 88 112 151 
4 54 98 139 
5 64 134 70 
6 90 55 176 
7 26 194 143 
8 94 183 151 
9 28 157 136 
10 72 149 80 
11 49 91 167 
12 54 118 180 
13 19 112 102 
14 28 158 116 
15 61 87 157 
16 84 85 57 
17 23 83 149 
18 67 66 68 
19 53 66 95 
20 54 167 116 
21 16 53 62 
22 9 56 68 
23 54 110 166 
24 77 198 141 
